decision_x1=[0,2];
decision_x2=[0,2];
decision_x3=[0,2];
decision_x4=[0,2];
decision_x5=[0,2];
decision_x6=[0,2];
decision_x7=[0,2];
decision_x8=[0,2];
decision_x9=[0,2];
decision_x10=[0,2];
decision_x11=[0,2];
decision_x12=[0,2];
decision_x13=[0,2];
decision_x14=[0,2];
decision_x15=[0,2];
random_y1=[0,2];
random_y2=[0,2];
random_y3=[0,2];
constraint_x3_x2=[
0,1,3.8|
0,2,7.2|
1,0,3.1|
1,2,4.3|
2,0,3.2|
2,1,1.7|
];
constraint_x5_x4=[
0,1,3.6|
0,2,1.8|
1,0,9.3|
1,2,8.6|
2,0,3.7|
2,1,9.7|
];
constraint_x6_x2=[
0,1,2.8|
0,2,7.9|
1,0,9.8|
1,2,1.5|
2,0,9.3|
2,1,2.7|
];
constraint_x7_x1=[
0,1,1.7|
0,2,3.7|
1,0,3.7|
1,2,1.2|
2,0,2.6|
2,1,0.093|
];
constraint_x7_x3=[
0,1,3.4|
0,2,2.3|
1,0,9.7|
1,2,7.9|
2,0,2.2|
2,1,7.4|
];
constraint_x8_x1=[
0,1,4.8|
0,2,8.2|
1,0,6.1|
1,2,9.9|
2,0,7.6|
2,1,1.4|
];
constraint_x8_x2=[
0,1,2.4|
0,2,5.7|
1,0,7.8|
1,2,8.1|
2,0,7.5|
2,1,5.3|
];
constraint_x8_x3=[
0,1,0.084|
0,2,5.7|
1,0,4.6|
1,2,6.9|
2,0,4.9|
2,1,9.9|
];
constraint_x9_x2=[
0,1,0.31|
0,2,4.1|
1,0,1.8|
1,2,1.2|
2,0,6.5|
2,1,7.9|
];
constraint_x9_x3=[
0,1,6.4|
0,2,6.2|
1,0,8.8|
1,2,9.6|
2,0,2.7|
2,1,2.7|
];
constraint_x10_x2=[
0,1,1.7|
0,2,4.4|
1,0,4.5|
1,2,4.3|
2,0,8.7|
2,1,4.5|
];
constraint_x10_x4=[
0,1,9.7|
0,2,6.6|
1,0,7.4|
1,2,2|
2,0,0.41|
2,1,8.8|
];
constraint_x10_x6=[
0,1,0.93|
0,2,6.9|
1,0,9.5|
1,2,3.3|
2,0,3.8|
2,1,9.9|
];
constraint_x10_x7=[
0,1,9.8|
0,2,2.8|
1,0,9.5|
1,2,9.7|
2,0,5.5|
2,1,1.4|
];
constraint_x10_x8=[
0,1,2.3|
0,2,2.2|
1,0,8|
1,2,5.3|
2,0,1.4|
2,1,6.8|
];
constraint_x11_x2=[
0,1,6.3|
0,2,9.1|
1,0,4.6|
1,2,5.8|
2,0,0.7|
2,1,6.6|
];
constraint_x11_x5=[
0,1,2.4|
0,2,3.2|
1,0,8.5|
1,2,4.9|
2,0,4.2|
2,1,3.9|
];
constraint_x11_x6=[
0,1,3|
0,2,6.8|
1,0,3.7|
1,2,9.8|
2,0,0.069|
2,1,1.5|
];
constraint_x11_x7=[
0,1,3.5|
0,2,0.19|
1,0,0.87|
1,2,1.7|
2,0,1.8|
2,1,7.1|
];
constraint_x11_x9=[
0,1,0.12|
0,2,4.6|
1,0,9.7|
1,2,4.7|
2,0,3.5|
2,1,4.8|
];
constraint_x12_x1=[
0,1,3.7|
0,2,9.8|
1,0,2.5|
1,2,8.9|
2,0,1.7|
2,1,5.7|
];
constraint_x12_x2=[
0,1,3.9|
0,2,6.7|
1,0,4.7|
1,2,3.6|
2,0,3.1|
2,1,9.1|
];
constraint_x12_x3=[
0,1,8.1|
0,2,0.34|
1,0,6.3|
1,2,6.2|
2,0,2|
2,1,6|
];
constraint_x12_x4=[
0,1,3|
0,2,8.6|
1,0,2.3|
1,2,2.5|
2,0,3.1|
2,1,1.3|
];
constraint_x12_x5=[
0,1,3.5|
0,2,5.7|
1,0,4.8|
1,2,7.7|
2,0,9.6|
2,1,8.2|
];
constraint_x12_x6=[
0,1,9.8|
0,2,4.6|
1,0,3.2|
1,2,6.5|
2,0,6.7|
2,1,7.4|
];
constraint_x12_x7=[
0,1,8.7|
0,2,8.2|
1,0,3|
1,2,9.2|
2,0,10|
2,1,1.7|
];
constraint_x12_x8=[
0,1,0.38|
0,2,1.6|
1,0,3|
1,2,9.7|
2,0,9.7|
2,1,7.6|
];
constraint_x12_x10=[
0,1,2.8|
0,2,1.1|
1,0,4.8|
1,2,6.3|
2,0,4.7|
2,1,1.1|
];
constraint_x13_x1=[
0,1,2|
0,2,5.4|
1,0,2.2|
1,2,2.2|
2,0,7.4|
2,1,8.8|
];
constraint_x13_x3=[
0,1,0.88|
0,2,9.5|
1,0,2.2|
1,2,6.7|
2,0,8.8|
2,1,1.4|
];
constraint_x13_x4=[
0,1,1.3|
0,2,1.7|
1,0,1.5|
1,2,0.83|
2,0,3.6|
2,1,9.4|
];
constraint_x13_x5=[
0,1,9.7|
0,2,0.87|
1,0,3.5|
1,2,5.3|
2,0,2.8|
2,1,0.84|
];
constraint_x13_x6=[
0,1,5.6|
0,2,4.5|
1,0,4|
1,2,9.7|
2,0,0.49|
2,1,5.9|
];
constraint_x13_x9=[
0,1,9.1|
0,2,4.7|
1,0,0.52|
1,2,7.3|
2,0,0.96|
2,1,2.8|
];
constraint_x13_x11=[
0,1,5.7|
0,2,1.7|
1,0,5.4|
1,2,4.5|
2,0,2.3|
2,1,6.6|
];
constraint_x13_x12=[
0,1,6.5|
0,2,0.012|
1,0,3.2|
1,2,9.5|
2,0,4.4|
2,1,4.7|
];
constraint_x14_x2=[
0,1,4.9|
0,2,5.6|
1,0,6.3|
1,2,4.8|
2,0,3.4|
2,1,9.5|
];
constraint_x14_x3=[
0,1,3.6|
0,2,6.3|
1,0,2.6|
1,2,3.6|
2,0,0.17|
2,1,3.6|
];
constraint_x14_x4=[
0,1,2.5|
0,2,7|
1,0,9.6|
1,2,8.7|
2,0,8.1|
2,1,2.3|
];
constraint_x14_x6=[
0,1,3.4|
0,2,2.9|
1,0,4.1|
1,2,4.2|
2,0,8.6|
2,1,8.7|
];
constraint_x14_x10=[
0,1,7.2|
0,2,1.4|
1,0,6.9|
1,2,4.5|
2,0,4|
2,1,3.8|
];
constraint_x14_x11=[
0,1,9.9|
0,2,7.8|
1,0,2.7|
1,2,3.3|
2,0,0.69|
2,1,1.2|
];
constraint_x15_x1=[
0,1,1.2|
0,2,3.4|
1,0,4.2|
1,2,10|
2,0,0.69|
2,1,3.2|
];
constraint_x15_x2=[
0,1,4|
0,2,7.6|
1,0,6.1|
1,2,8.2|
2,0,5.5|
2,1,4|
];
constraint_x15_x3=[
0,1,6.3|
0,2,5.8|
1,0,2.7|
1,2,0.085|
2,0,8.1|
2,1,2.9|
];
constraint_x15_x4=[
0,1,7.5|
0,2,4|
1,0,1.6|
1,2,2|
2,0,9.5|
2,1,8.8|
];
constraint_x15_x7=[
0,1,6.7|
0,2,5.8|
1,0,5.7|
1,2,1.5|
2,0,8.8|
2,1,1.1|
];
constraint_x15_x9=[
0,1,5.4|
0,2,10|
1,0,8.4|
1,2,0.36|
2,0,8.1|
2,1,0.91|
];
constraint_x15_x10=[
0,1,2.3|
0,2,6.4|
1,0,9|
1,2,0.15|
2,0,2.4|
2,1,1.3|
];
constraint_x15_x12=[
0,1,2.7|
0,2,9.1|
1,0,4.3|
1,2,2|
2,0,9.2|
2,1,7.8|
];
constraint_x15_x13=[
0,1,8.3|
0,2,1.6|
1,0,3.9|
1,2,3.6|
2,0,3|
2,1,9.2|
];
constraint_x15_x14=[
0,1,4.3|
0,2,7.7|
1,0,3.7|
1,2,4.7|
2,0,9.3|
2,1,1.4|
];
constraint_x1_y1=[
0,0,3.2|
0,1,0.19|
0,2,4.6|
1,0,2.8|
1,1,2.2|
1,2,7.7|
2,0,3.9|
2,1,7.2|
2,2,2.9|
];
constraint_x2_y2=[
0,0,6.5|
0,1,7.8|
0,2,0.6|
1,0,0.98|
1,1,6.7|
1,2,5|
2,0,8.2|
2,1,3.6|
2,2,8.5|
];
constraint_x3_y3=[
0,0,9.7|
0,1,0.9|
0,2,9.9|
1,0,5.2|
1,1,2.2|
1,2,0.84|
2,0,9|
2,1,6.7|
2,2,6.1|
];
initial_distribution_y1=[0.34,0.45,0.21];
initial_distribution_y2=[0.42,0.22,0.36];
initial_distribution_y3=[0.17,0.4,0.43];
transition_y1=[
0.57,0.17,0.27|
0.33,0.46,0.21|
0.44,0.14,0.42|
];
transition_y2=[
0.065,0.34,0.59|
0.41,0.24,0.35|
0.19,0.35,0.46|
];
transition_y3=[
0.4,0.38,0.23|
0.17,0.56,0.27|
0.45,0.36,0.19|
];
